(set-logic QF_BV)

(declare-const __ESBMC_ptr_obj_start_0 (_ BitVec 64))

(declare-const __ESBMC_ptr_obj_end_0 (_ BitVec 64))

(declare-const __ESBMC_ptr_obj_start_1 (_ BitVec 64))

(declare-const __ESBMC_ptr_obj_end_1 (_ BitVec 64))

(declare-const |smt_conv::__ESBMC_ptr_addr_range_0..start0| (_ BitVec 64))

(declare-const |smt_conv::__ESBMC_ptr_addr_range_0..end0| (_ BitVec 64))

(declare-const |smt_conv::__ESBMC_ptr_addr_range_1..start0| (_ BitVec 64))

(declare-const |smt_conv::__ESBMC_ptr_addr_range_1..end0| (_ BitVec 64))

(declare-const |smt_conv::smt_conv::collate_array_vals::3..start0| (_ BitVec 64))

(declare-const |smt_conv::smt_conv::collate_array_vals::3..end0| (_ BitVec 64))

(declare-const |smt_conv::smt_conv::collate_array_vals::4..start0| (_ BitVec 64))

(declare-const |smt_conv::smt_conv::collate_array_vals::4..end0| (_ BitVec 64))

(declare-const |smt_conv::smt_conv::collate_array_vals::7..start0| (_ BitVec 64))

(declare-const |smt_conv::smt_conv::collate_array_vals::7..end0| (_ BitVec 64))

(declare-const |c:@F@main::$tmp::return_value$___VERIFIER_nondet_int$1?1!0&0#1| (_ BitVec 32))

(declare-const |nondet$symex::nondet85| (_ BitVec 32))

(declare-const |c:benchmark11_linear.i@904@F@main@x?1!0&0#1| (_ BitVec 32))

(declare-const |c:@F@main::$tmp::return_value$___VERIFIER_nondet_int$2?1!0&0#1| (_ BitVec 32))

(declare-const |nondet$symex::nondet86| (_ BitVec 32))

(declare-const |c:benchmark11_linear.i@939@F@main@n?1!0&0#1| (_ BitVec 32))

(declare-const |goto_symex::guard?0!0&0#1| (_ BitVec 1))

(declare-const |c:benchmark11_linear.i@904@F@main@x?1!0&0#2| (_ BitVec 32))

(declare-const |nondet$symex::nondet87| (_ BitVec 32))

(declare-const |goto_symex::guard?0!0&0#2| (_ BitVec 1))

(declare-const |c:benchmark11_linear.i@904@F@main@x?1!0&0#3| (_ BitVec 32))

(declare-const |goto_symex::guard?0!0&0#3| (_ BitVec 1))

(declare-const |c:benchmark11_linear.i@904@F@main@x?1!0&0#4| (_ BitVec 32))

(declare-const |goto_symex::guard?0!0&0#4| (_ BitVec 1))

(declare-const |c:benchmark11_linear.i@904@F@main@x?1!0&0#5| (_ BitVec 32))

(declare-const |goto_symex::guard?0!0&0#5| (_ BitVec 1))

(declare-const |c:benchmark11_linear.i@904@F@main@x?1!0&0#6| (_ BitVec 32))

(declare-const |goto_symex::guard?0!0&0#6| (_ BitVec 1))

(declare-const |c:benchmark11_linear.i@904@F@main@x?1!0&0#7| (_ BitVec 32))

(declare-const |goto_symex::guard?0!0&0#7| (_ BitVec 1))

(declare-const |c:benchmark11_linear.i@904@F@main@x?1!0&0#8| (_ BitVec 32))

(declare-const |goto_symex::guard?0!0&0#8| (_ BitVec 1))

(declare-const |c:benchmark11_linear.i@904@F@main@x?1!0&0#9| (_ BitVec 32))

(declare-const |goto_symex::guard?0!0&0#9| (_ BitVec 1))

(declare-const |c:benchmark11_linear.i@904@F@main@x?1!0&0#10| (_ BitVec 32))

(declare-const |goto_symex::guard?0!0&0#10| (_ BitVec 1))

(declare-const |c:benchmark11_linear.i@904@F@main@x?1!0&0#11| (_ BitVec 32))

(declare-const |goto_symex::guard?0!0&0#11| (_ BitVec 1))

(declare-const |c:benchmark11_linear.i@904@F@main@x?1!0&0#12| (_ BitVec 32))

(declare-const |goto_symex::guard?0!0&0#12| (_ BitVec 1))

(declare-const |c:benchmark11_linear.i@904@F@main@x?1!0&0#13| (_ BitVec 32))

(declare-const |goto_symex::guard?0!0&0#13| (_ BitVec 1))

(declare-const |c:benchmark11_linear.i@904@F@main@x?1!0&0#14| (_ BitVec 32))

(declare-const |goto_symex::guard?0!0&0#14| (_ BitVec 1))

(declare-const |c:benchmark11_linear.i@904@F@main@x?1!0&0#15| (_ BitVec 32))

(declare-const |c:benchmark11_linear.i@904@F@main@x?1!0&0#16| (_ BitVec 32))

(declare-const |c:benchmark11_linear.i@904@F@main@x?1!0&0#17| (_ BitVec 32))

(declare-const |c:benchmark11_linear.i@904@F@main@x?1!0&0#18| (_ BitVec 32))

(declare-const |c:benchmark11_linear.i@904@F@main@x?1!0&0#19| (_ BitVec 32))

(declare-const |c:benchmark11_linear.i@904@F@main@x?1!0&0#20| (_ BitVec 32))

(declare-const |c:benchmark11_linear.i@904@F@main@x?1!0&0#21| (_ BitVec 32))

(declare-const |c:benchmark11_linear.i@904@F@main@x?1!0&0#22| (_ BitVec 32))

(declare-const |c:benchmark11_linear.i@904@F@main@x?1!0&0#23| (_ BitVec 32))

(declare-const |c:benchmark11_linear.i@904@F@main@x?1!0&0#24| (_ BitVec 32))

(declare-const |c:benchmark11_linear.i@904@F@main@x?1!0&0#25| (_ BitVec 32))

(declare-const |c:benchmark11_linear.i@904@F@main@x?1!0&0#26| (_ BitVec 32))

(declare-const |c:benchmark11_linear.i@904@F@main@x?1!0&0#27| (_ BitVec 32))

(declare-const |c:benchmark11_linear.i@904@F@main@x?1!0&0#28| (_ BitVec 32))

(declare-const |c:benchmark11_linear.i@837@F@__VERIFIER_assert@cond?1!0&0#1| (_ BitVec 32))

(declare-const |goto_symex::guard?0!0&0#15| (_ BitVec 1))

(declare-const |execution_statet::guard_exec?0!0| (_ BitVec 1))

(define-fun $e1 () Bool 

 (bvslt |c:benchmark11_linear.i@904@F@main@x?1!0&0#2| |c:benchmark11_linear.i@939@F@main@n?1!0&0#1|))

(assert 

 (= __ESBMC_ptr_obj_start_0 #b0000000000000000000000000000000000000000000000000000000000000000))

(assert 

 (= #b0000000000000000000000000000000000000000000000000000000000000000 __ESBMC_ptr_obj_end_0))

(assert 

 (= __ESBMC_ptr_obj_start_1 #b0000000000000000000000000000000000000000000000000000000000000001))

(assert 

 (= #b1111111111111111111111111111111111111111111111111111111111111111 __ESBMC_ptr_obj_end_1))

(assert 

 (= __ESBMC_ptr_obj_end_0 |smt_conv::__ESBMC_ptr_addr_range_0..end0|))

(assert 

 (= __ESBMC_ptr_obj_start_0 |smt_conv::__ESBMC_ptr_addr_range_0..start0|))

(assert 

 (= __ESBMC_ptr_obj_end_1 |smt_conv::__ESBMC_ptr_addr_range_1..end0|))

(assert 

 (= __ESBMC_ptr_obj_start_1 |smt_conv::__ESBMC_ptr_addr_range_1..start0|))

(assert 

 (= |smt_conv::smt_conv::collate_array_vals::3..end0| |smt_conv::smt_conv::collate_array_vals::4..end0|))

(assert 

 (= |smt_conv::smt_conv::collate_array_vals::3..start0| |smt_conv::smt_conv::collate_array_vals::4..start0|))

(assert 

 (= __ESBMC_ptr_obj_end_0 |smt_conv::smt_conv::collate_array_vals::7..end0|))

(assert 

 (= __ESBMC_ptr_obj_start_0 |smt_conv::smt_conv::collate_array_vals::7..start0|))

(assert 

 (= |c:@F@main::$tmp::return_value$___VERIFIER_nondet_int$1?1!0&0#1| |nondet$symex::nondet85|))

(assert 

 (= |c:@F@main::$tmp::return_value$___VERIFIER_nondet_int$1?1!0&0#1| |c:benchmark11_linear.i@904@F@main@x?1!0&0#1|))

(assert 

 (= |c:@F@main::$tmp::return_value$___VERIFIER_nondet_int$2?1!0&0#1| |nondet$symex::nondet86|))

(assert 

 (= |c:@F@main::$tmp::return_value$___VERIFIER_nondet_int$2?1!0&0#1| |c:benchmark11_linear.i@939@F@main@n?1!0&0#1|))

(assert 

 (= |goto_symex::guard?0!0&0#1| 

  (bvnot 

   (ite 

    (and 

     (bvslt #b00000000000000000000000000000000 |c:benchmark11_linear.i@939@F@main@n?1!0&0#1|) 

     (= #b00000000000000000000000000000000 |c:benchmark11_linear.i@904@F@main@x?1!0&0#1|)) #b1 #b0))))

(assert 

 (= |c:benchmark11_linear.i@904@F@main@x?1!0&0#2| |nondet$symex::nondet87|))

(assert 

 (= 

  (ite $e1 #b1 #b0) |goto_symex::guard?0!0&0#2|))

(assert 

 (= |c:benchmark11_linear.i@904@F@main@x?1!0&0#3| 

  (bvadd |c:benchmark11_linear.i@904@F@main@x?1!0&0#2| #b00000000000000000000000000000001)))

(assert 

 (= |goto_symex::guard?0!0&0#3| 

  (ite 

   (bvslt |c:benchmark11_linear.i@904@F@main@x?1!0&0#3| |c:benchmark11_linear.i@939@F@main@n?1!0&0#1|) #b1 #b0)))

(assert 

 (= |c:benchmark11_linear.i@904@F@main@x?1!0&0#4| 

  (bvadd |c:benchmark11_linear.i@904@F@main@x?1!0&0#3| #b00000000000000000000000000000001)))

(assert 

 (= |goto_symex::guard?0!0&0#4| 

  (ite 

   (bvslt |c:benchmark11_linear.i@904@F@main@x?1!0&0#4| |c:benchmark11_linear.i@939@F@main@n?1!0&0#1|) #b1 #b0)))

(assert 

 (= |c:benchmark11_linear.i@904@F@main@x?1!0&0#5| 

  (bvadd #b00000000000000000000000000000001 |c:benchmark11_linear.i@904@F@main@x?1!0&0#4|)))

(assert 

 (= |goto_symex::guard?0!0&0#5| 

  (ite 

   (bvslt |c:benchmark11_linear.i@904@F@main@x?1!0&0#5| |c:benchmark11_linear.i@939@F@main@n?1!0&0#1|) #b1 #b0)))

(assert 

 (= |c:benchmark11_linear.i@904@F@main@x?1!0&0#6| 

  (bvadd #b00000000000000000000000000000001 |c:benchmark11_linear.i@904@F@main@x?1!0&0#5|)))

(assert 

 (= |goto_symex::guard?0!0&0#6| 

  (ite 

   (bvslt |c:benchmark11_linear.i@904@F@main@x?1!0&0#6| |c:benchmark11_linear.i@939@F@main@n?1!0&0#1|) #b1 #b0)))

(assert 

 (= |c:benchmark11_linear.i@904@F@main@x?1!0&0#7| 

  (bvadd #b00000000000000000000000000000001 |c:benchmark11_linear.i@904@F@main@x?1!0&0#6|)))

(assert 

 (= |goto_symex::guard?0!0&0#7| 

  (ite 

   (bvslt |c:benchmark11_linear.i@904@F@main@x?1!0&0#7| |c:benchmark11_linear.i@939@F@main@n?1!0&0#1|) #b1 #b0)))

(assert 

 (= |c:benchmark11_linear.i@904@F@main@x?1!0&0#8| 

  (bvadd #b00000000000000000000000000000001 |c:benchmark11_linear.i@904@F@main@x?1!0&0#7|)))

(assert 

 (= |goto_symex::guard?0!0&0#8| 

  (ite 

   (bvslt |c:benchmark11_linear.i@904@F@main@x?1!0&0#8| |c:benchmark11_linear.i@939@F@main@n?1!0&0#1|) #b1 #b0)))

(assert 

 (= |c:benchmark11_linear.i@904@F@main@x?1!0&0#9| 

  (bvadd #b00000000000000000000000000000001 |c:benchmark11_linear.i@904@F@main@x?1!0&0#8|)))

(assert 

 (= |goto_symex::guard?0!0&0#9| 

  (ite 

   (bvslt |c:benchmark11_linear.i@904@F@main@x?1!0&0#9| |c:benchmark11_linear.i@939@F@main@n?1!0&0#1|) #b1 #b0)))

(assert 

 (= |c:benchmark11_linear.i@904@F@main@x?1!0&0#10| 

  (bvadd #b00000000000000000000000000000001 |c:benchmark11_linear.i@904@F@main@x?1!0&0#9|)))

(assert 

 (= |goto_symex::guard?0!0&0#10| 

  (ite 

   (bvslt |c:benchmark11_linear.i@904@F@main@x?1!0&0#10| |c:benchmark11_linear.i@939@F@main@n?1!0&0#1|) #b1 #b0)))

(assert 

 (= |c:benchmark11_linear.i@904@F@main@x?1!0&0#11| 

  (bvadd #b00000000000000000000000000000001 |c:benchmark11_linear.i@904@F@main@x?1!0&0#10|)))

(assert 

 (= |goto_symex::guard?0!0&0#11| 

  (ite 

   (bvslt |c:benchmark11_linear.i@904@F@main@x?1!0&0#11| |c:benchmark11_linear.i@939@F@main@n?1!0&0#1|) #b1 #b0)))

(assert 

 (= |c:benchmark11_linear.i@904@F@main@x?1!0&0#12| 

  (bvadd #b00000000000000000000000000000001 |c:benchmark11_linear.i@904@F@main@x?1!0&0#11|)))

(assert 

 (= |goto_symex::guard?0!0&0#12| 

  (ite 

   (bvslt |c:benchmark11_linear.i@904@F@main@x?1!0&0#12| |c:benchmark11_linear.i@939@F@main@n?1!0&0#1|) #b1 #b0)))

(assert 

 (= |c:benchmark11_linear.i@904@F@main@x?1!0&0#13| 

  (bvadd #b00000000000000000000000000000001 |c:benchmark11_linear.i@904@F@main@x?1!0&0#12|)))

(assert 

 (= |goto_symex::guard?0!0&0#13| 

  (ite 

   (bvslt |c:benchmark11_linear.i@904@F@main@x?1!0&0#13| |c:benchmark11_linear.i@939@F@main@n?1!0&0#1|) #b1 #b0)))

(assert 

 (= |c:benchmark11_linear.i@904@F@main@x?1!0&0#14| 

  (bvadd #b00000000000000000000000000000001 |c:benchmark11_linear.i@904@F@main@x?1!0&0#13|)))

(assert 

 (= |goto_symex::guard?0!0&0#14| 

  (ite 

   (bvslt |c:benchmark11_linear.i@904@F@main@x?1!0&0#14| |c:benchmark11_linear.i@939@F@main@n?1!0&0#1|) #b1 #b0)))

(assert 

 (= |c:benchmark11_linear.i@904@F@main@x?1!0&0#15| 

  (bvadd #b00000000000000000000000000000001 |c:benchmark11_linear.i@904@F@main@x?1!0&0#14|)))

(assert 

 (= |c:benchmark11_linear.i@904@F@main@x?1!0&0#16| 

  (ite 

   (= #b1 |goto_symex::guard?0!0&0#14|) |c:benchmark11_linear.i@904@F@main@x?1!0&0#15| |c:benchmark11_linear.i@904@F@main@x?1!0&0#14|)))

(assert 

 (= |c:benchmark11_linear.i@904@F@main@x?1!0&0#17| 

  (ite 

   (= #b1 |goto_symex::guard?0!0&0#13|) |c:benchmark11_linear.i@904@F@main@x?1!0&0#16| |c:benchmark11_linear.i@904@F@main@x?1!0&0#13|)))

(assert 

 (= |c:benchmark11_linear.i@904@F@main@x?1!0&0#18| 

  (ite 

   (= #b1 |goto_symex::guard?0!0&0#12|) |c:benchmark11_linear.i@904@F@main@x?1!0&0#17| |c:benchmark11_linear.i@904@F@main@x?1!0&0#12|)))

(assert 

 (= |c:benchmark11_linear.i@904@F@main@x?1!0&0#19| 

  (ite 

   (= #b1 |goto_symex::guard?0!0&0#11|) |c:benchmark11_linear.i@904@F@main@x?1!0&0#18| |c:benchmark11_linear.i@904@F@main@x?1!0&0#11|)))

(assert 

 (= |c:benchmark11_linear.i@904@F@main@x?1!0&0#20| 

  (ite 

   (= #b1 |goto_symex::guard?0!0&0#10|) |c:benchmark11_linear.i@904@F@main@x?1!0&0#19| |c:benchmark11_linear.i@904@F@main@x?1!0&0#10|)))

(assert 

 (= |c:benchmark11_linear.i@904@F@main@x?1!0&0#21| 

  (ite 

   (= #b1 |goto_symex::guard?0!0&0#9|) |c:benchmark11_linear.i@904@F@main@x?1!0&0#20| |c:benchmark11_linear.i@904@F@main@x?1!0&0#9|)))

(assert 

 (= |c:benchmark11_linear.i@904@F@main@x?1!0&0#22| 

  (ite 

   (= #b1 |goto_symex::guard?0!0&0#8|) |c:benchmark11_linear.i@904@F@main@x?1!0&0#21| |c:benchmark11_linear.i@904@F@main@x?1!0&0#8|)))

(assert 

 (= |c:benchmark11_linear.i@904@F@main@x?1!0&0#23| 

  (ite 

   (= #b1 |goto_symex::guard?0!0&0#7|) |c:benchmark11_linear.i@904@F@main@x?1!0&0#22| |c:benchmark11_linear.i@904@F@main@x?1!0&0#7|)))

(assert 

 (= |c:benchmark11_linear.i@904@F@main@x?1!0&0#24| 

  (ite 

   (= #b1 |goto_symex::guard?0!0&0#6|) |c:benchmark11_linear.i@904@F@main@x?1!0&0#23| |c:benchmark11_linear.i@904@F@main@x?1!0&0#6|)))

(assert 

 (= |c:benchmark11_linear.i@904@F@main@x?1!0&0#25| 

  (ite 

   (= #b1 |goto_symex::guard?0!0&0#5|) |c:benchmark11_linear.i@904@F@main@x?1!0&0#24| |c:benchmark11_linear.i@904@F@main@x?1!0&0#5|)))

(assert 

 (= |c:benchmark11_linear.i@904@F@main@x?1!0&0#26| 

  (ite 

   (= #b1 |goto_symex::guard?0!0&0#4|) |c:benchmark11_linear.i@904@F@main@x?1!0&0#25| |c:benchmark11_linear.i@904@F@main@x?1!0&0#4|)))

(assert 

 (= |c:benchmark11_linear.i@904@F@main@x?1!0&0#27| 

  (ite 

   (= #b1 |goto_symex::guard?0!0&0#3|) |c:benchmark11_linear.i@904@F@main@x?1!0&0#26| |c:benchmark11_linear.i@904@F@main@x?1!0&0#3|)))

(assert 

 (= |c:benchmark11_linear.i@904@F@main@x?1!0&0#28| 

  (ite 

   (= #b1 |goto_symex::guard?0!0&0#2|) |c:benchmark11_linear.i@904@F@main@x?1!0&0#27| |c:benchmark11_linear.i@904@F@main@x?1!0&0#2|)))

(assert 

 (= |c:benchmark11_linear.i@837@F@__VERIFIER_assert@cond?1!0&0#1| 

  (ite 

   (= |c:benchmark11_linear.i@939@F@main@n?1!0&0#1| |c:benchmark11_linear.i@904@F@main@x?1!0&0#28|) #b00000000000000000000000000000001 #b00000000000000000000000000000000)))

(assert 

 (= |goto_symex::guard?0!0&0#15| 

  (ite 

   (= #b00000000000000000000000000000000 |c:benchmark11_linear.i@837@F@__VERIFIER_assert@cond?1!0&0#1|) #b1 #b0)))

(assert (= 

 (bvnot 

  (bvand 

   (bvnot |goto_symex::guard?0!0&0#1|) 

   (bvnot 

    (ite $e1 #b1 #b0)))) #b1))

(assert (= |execution_statet::guard_exec?0!0| #b1))

(assert (= |goto_symex::guard?0!0&0#15| #b1))

(assert (= 

 (bvnot |goto_symex::guard?0!0&0#1|) #b1))

(check-sat)

(exit)
